53
22 41 415
41 6 76
6 1 45
1 52 187
52 29 480
29 28 260
28 15 201
15 17 408
17 21 116
21 20 251
20 30 150
30 31 190
31 44 151
44 2 220
2 16 217
16 18 421
18 40 92
40 7 64
7 8 183
8 9 83
9 32 501
32 50 475
50 10 285
10 51 399
51 13 319
13 12 206
12 46 324
46 25 186
25 26 126
26 27 110
27 11 182
11 3 294
3 42 245
42 48 400
48 35 81
35 34 15
34 38 53
38 39 43
39 14 90
14 24 164
24 5 124
5 4 35
4 37 51
37 23 45
23 47 16
47 45 125
45 36 139
36 33 76
33 43 80
43 49 175
49 19 35
19 22 94

